; benchmark generated from python API
(set-info :status unknown)
(define-funs-rec ( ( T2_12 ((x!1 Int)) Int)
                   ( e2_12 ((x!1 Int)) Int)
                   ( fe2_12 ((x!1 Int)) Int)
                   ( p2_12 ((x!1 Int)) Int)
                   ( T2_09 ((x!1 Int)) Int)
                   ( o2_09 ((x!1 Int)) Int)
                   ( f2_09 ((x!1 Int)) Int)
                   ( p2_09 ((x!1 Int)) Int))
                 ( (mod (+ ((_ e2_12 0) x!1) 1) 2)
                   (let ((a!1 ((_ fe2_12 0) (+ ((_ e2_12 0) (- x!1 1)) 1))))
                     (ite (= x!1 0) 0 a!1))
                   (ite (= (mod ((_ p2_12 0) x!1) 2) 0)
                        x!1
                        ((_ fe2_12 0) (+ x!1 1)))
                   (ite (= x!1 0) 0 (+ ((_ p2_12 0) (div x!1 2)) x!1))
                   (mod (+ ((_ o2_09 0) x!1) 1) 2)
                   (let ((a!1 ((_ f2_09 0) (+ ((_ o2_09 0) (- x!1 1)) 1))))
                     (ite (= x!1 0) 1 a!1))
                   (ite (= (mod ((_ p2_09 0) x!1) 2) 1)
                        x!1
                        ((_ f2_09 0) (+ x!1 1)))
                   (ite (= x!1 0) 0 (+ ((_ p2_09 0) (div x!1 2)) x!1))))
(assert
 (forall ((n Int) )(let ((?x215 ((_ T2_12 0) n)))
(let ((?x265 ((_ T2_09 0) n)))
(let (($x297 (= ?x265 ?x215)))
(let (($x251 (>= n 0)))
(=> $x251 $x297))))))
)
(check-sat)
